(set-logic QF_FPABV)
(declare-fun b13 () (_ FP 11 53))
(declare-fun b54 () (_ FP 11 53))
(declare-fun b22 () (_ FP 11 53))
(declare-fun b57 () (_ FP 11 53))
(declare-fun b11 () (_ FP 11 53))
(declare-fun b10 () (_ FP 11 53))
(declare-fun b19 () (_ FP 11 53))
(define-fun .3 () RoundingMode roundNearestTiesToEven)
(define-fun .9 () (_ FP 11 53) b11)
(define-fun .10 () (_ FP 11 53) b10)
(define-fun .11 () (_ FP 11 53) (+ .3 .9 .10))
(define-fun .12 () (_ FP 11 53) b13)
(define-fun .13 () Bool (< .11 .12))
(define-fun .14 () (_ FP 11 53) b22)
(define-fun .15 () (_ FP 11 53) (* .3 .10 .14))
(define-fun .16 () (_ FP 11 53) b19)
(define-fun .17 () (_ FP 11 53) (+ .3 .12 .16))
(define-fun .18 () Bool (< .17 .15))
(define-fun .19 () Bool (and .13 .18))
(define-fun .20 () (_ FP 11 53) (* .3 .9 .10))
(define-fun .21 () Bool (< .20 .12))
(define-fun .22 () Bool (and .19 .21))
(define-fun .23 () (_ FP 11 53) (- .9))
(define-fun .24 () (_ FP 11 53) (+ .3 .10 .23))
(define-fun .25 () Bool (< .24 .16))
(define-fun .26 () Bool (and .22 .25))
(define-fun .27 () (_ FP 11 53) b54)
(define-fun .28 () Bool (<= .10 .27))
(define-fun .29 () Bool (and .26 .28))
(define-fun .30 () (_ FP 11 53) b57)
(define-fun .31 () Bool (<= .30 .10))
(define-fun .32 () Bool (and .29 .31))
(define-fun .33 () Bool (<= .9 .27))
(define-fun .34 () Bool (and .32 .33))
(define-fun .35 () Bool (<= .30 .9))
(define-fun .36 () Bool (and .34 .35))
(define-fun .37 () Bool (<= .12 .27))
(define-fun .38 () Bool (and .36 .37))
(define-fun .39 () Bool (<= .30 .12))
(define-fun .40 () Bool (and .38 .39))
(define-fun .41 () Bool (<= .16 .27))
(define-fun .42 () Bool (and .40 .41))
(define-fun .43 () Bool (<= .30 .16))
(define-fun .44 () Bool (and .42 .43))
(assert .44)
(check-sat)
